(set-logic HORN)
(declare-fun state (Int (Array Int Int) (Array Int Int) (Array Int Int) (Array Int Int) Int Int (Array Int Int) (Array Int Int) Int Int Int Int Int Int Int Int Int Int Int Int Int Int Int Bool Bool Bool Bool Bool Int (Array Int Int) (Array Int Int)) Bool)
(assert (forall ((|A_11| Int) (|Z_7| (Array Int Int)) (|C_11| (Array Int Int)) (|D_11| (Array Int Int)) (|E_11| (Array Int Int)) (|F_11| Int) (|G_11| Int) (|H_11| (Array Int Int)) (|I_11| (Array Int Int)) (|J_11| Int) (|K_11| Int) (|L_11| Int) (|A1_3| Int) (|N_11| Int) (|O_11| Int) (|P_11| Int) (|B1_2| Int) (|R_11| Int) (|S_11| Int) (|T_11| Int) (|C1_0| Int) (|V_11| Int) (|D1_0| Int) (|X_11| Int) (|Y_11| Bool) (|.loc.5| Bool) (|.loc.6| Bool) (|.loc.7| Bool) (|.loc.8| Bool) (|A1_4| Int) (|Z_3| (Array Int Int)) (|Z_0| (Array Int Int)) (|.x.450| Int) (|.x.448| (Array Int Int)) (|.x.446| Int) (|.x.444| (Array Int Int)) (|.x.440| Int) (|.x.442| (Array Int Int)) (|.x.443| (Array Int Int)) (|.x.455| Int) (|.x.457| Int) (|.x.464| Bool) (|.x.441| (Array Int Int)) (|.x.453| Int) (|.x.458| Int) (|.x.461| Int) (|.x.463| Int) (|.x.454| Int) (|.x.462| Int) (|.x.460| Int) (|.x.456| Int) (|.x.452| Int) (|.loc.9| Bool) (|.loc.12| Bool) (|.loc.10| Bool) (|.loc.11| Bool) (|.x.459| Int) (|.x.451| Int) (|.x.449| Int) (|.x.445| Int) (|.x.447| (Array Int Int)) (|.xtv.1| Int) (|.xtv.2| (Array Int Int)) (|.xtv.3| (Array Int Int))) (=> (and (and (and (and .loc.5 .loc.6) (not .loc.7)) (not .loc.8)) (and (and (and (and (and (= D_11 E_11) (not Y_11)) (= J_11 K_11)) (= F_11 G_11)) (= H_11 I_11)) (= Z_7 C_11))) (state |A_11| |Z_7| |C_11| |D_11| |E_11| |F_11| |G_11| |H_11| |I_11| |J_11| |K_11| |L_11| |A1_3| |N_11| |O_11| |P_11| |B1_2| |R_11| |S_11| |T_11| |C1_0| |V_11| |D1_0| |X_11| |Y_11| |.loc.5| |.loc.6| |.loc.7| |.loc.8| |A1_4| |Z_3| |Z_0|))))
(assert (forall ((|A_11| Int) (|Z_7| (Array Int Int)) (|C_11| (Array Int Int)) (|D_11| (Array Int Int)) (|E_11| (Array Int Int)) (|F_11| Int) (|G_11| Int) (|H_11| (Array Int Int)) (|I_11| (Array Int Int)) (|J_11| Int) (|K_11| Int) (|L_11| Int) (|A1_3| Int) (|N_11| Int) (|O_11| Int) (|P_11| Int) (|B1_2| Int) (|R_11| Int) (|S_11| Int) (|T_11| Int) (|C1_0| Int) (|V_11| Int) (|D1_0| Int) (|X_11| Int) (|Y_11| Bool) (|.loc.5| Bool) (|.loc.6| Bool) (|.loc.7| Bool) (|.loc.8| Bool) (|A1_4| Int) (|Z_3| (Array Int Int)) (|Z_0| (Array Int Int)) (|.x.450| Int) (|.x.448| (Array Int Int)) (|.x.446| Int) (|.x.444| (Array Int Int)) (|.x.440| Int) (|.x.442| (Array Int Int)) (|.x.443| (Array Int Int)) (|.x.455| Int) (|.x.457| Int) (|.x.464| Bool) (|.x.441| (Array Int Int)) (|.x.453| Int) (|.x.458| Int) (|.x.461| Int) (|.x.463| Int) (|.x.454| Int) (|.x.462| Int) (|.x.460| Int) (|.x.456| Int) (|.x.452| Int) (|.loc.9| Bool) (|.loc.12| Bool) (|.loc.10| Bool) (|.loc.11| Bool) (|.x.459| Int) (|.x.451| Int) (|.x.449| Int) (|.x.445| Int) (|.x.447| (Array Int Int)) (|.xtv.1| Int) (|.xtv.2| (Array Int Int)) (|.xtv.3| (Array Int Int))) (=> (and (state |A_11| |Z_7| |C_11| |D_11| |E_11| |F_11| |G_11| |H_11| |I_11| |J_11| |K_11| |L_11| |A1_3| |N_11| |O_11| |P_11| |B1_2| |R_11| |S_11| |T_11| |C1_0| |V_11| |D1_0| |X_11| |Y_11| |.loc.5| |.loc.6| |.loc.7| |.loc.8| |A1_4| |Z_3| |Z_0|) (let ((.def_43 (not .loc.7))) (let ((.def_91 (= N_11 .x.453))) (let ((.def_94 (= S_11 .x.458))) (let ((.def_97 (= V_11 .x.461))) (let ((.def_100 (= X_11 .x.463))) (let ((.def_102 (= Y_11 .x.464))) (let ((.def_122 (= A1_4 10))) (let ((.def_125 (and (= .x.463 (select (select .x.443 .x.460) (+ (* 4 .x.454) .x.462))) (and (= .x.461 (ite (= .x.463 20) 1 0)) (and (= .x.453 .x.461) .def_122))))) (let ((.def_127 (= .x.453 0))) (let ((.def_129 (not .loc.5))) (let ((.def_133 (= D1_0 .x.462))) (let ((.def_135 (= C1_0 .x.460))) (let ((.def_138 (= B1_2 .x.456))) (let ((.def_140 (= P_11 .x.455))) (let ((.def_143 (= A1_3 .x.452))) (let ((.def_145 (= Z_7 .x.441))) (let ((.def_148 (+ A1_3 (* 4 O_11)))) (let ((.def_149 (select D_11 B1_2))) (let ((.def_153 (<= 100000 O_11))) (let ((.def_154 (not .def_153))) (let ((.def_156 (or Y_11 (and (= A1_4 (select .def_149 .def_148)) .def_154)))) (let ((.def_160 (not .loc.9))) (let ((.def_164 (not .loc.10))) (let ((.def_167 (not .loc.11))) (let ((.def_170 (and Y_11 .def_91))) (let ((.def_185 (not .loc.12))) (let ((.def_191 (and .def_102 (and .def_100 (and .def_97 (and .def_91 .def_94)))))) (let ((.def_203 (or Y_11 .def_153))) (let ((.def_206 (= O_11 .x.454))) (let ((.def_210 (and .loc.5 .def_191))) (let ((.def_222 (not .loc.6))) (let ((.def_230 (or Y_11 (= (+ O_11 (* (- 1) .x.454)) (- 2))))) (let ((.def_233 (and .def_91 .def_206))) (let ((.def_235 (and .def_97 (and .def_94 .def_233)))) (let ((.def_251 (= .x.454 0))) (let ((.def_285 (or .x.464 (not .def_122)))) (let ((.def_388 (and (= J_11 .x.449) (and (= F_11 .x.445) (= H_11 .x.447))))) (let ((.def_390 (= R_11 .x.457))) (let ((.def_420 (store Z_0 .x.456 1))) (let ((.def_456 (and (<= (- 2147483648) L_11) (and .def_154 (<= L_11 2147483647))))) (let ((.def_459 (store D_11 B1_2 (store .def_149 .def_148 L_11)))) (let ((.def_488 (and .def_222 (and .def_185 (and .def_145 (and .def_143 (and .def_140 (and .def_138 (and .def_135 (and .def_133 (and .def_129 (and .def_167 (and .def_160 (and .loc.10 (and .loc.7 (and .def_102 (and .def_100 (and .def_97 (and .def_94 (and .def_390 (and .def_206 (and .def_91 .def_388)))))))))))))))))))))) (and (and (not .loc.8) (and (= K_11 .x.450) (and (= I_11 .x.448) (and (= G_11 .x.446) (and (= E_11 .x.444) (and (= A_11 .x.440) (= C_11 .x.442))))))) (or (or (and (= D_11 .x.443) (or (and (or (or (or (or (or (or (or (or (or (and (or (or (and (or (and .loc.5 (and (or (= .x.455 .x.457) .x.464) (and (and (and (and (and (or Y_11 (= (store (store Z_7 B1_2 0) C1_0 0) .x.441)) .def_91) .def_94) .def_97) .def_100) .def_102))) (and (and (and (and (and (and (and (and (or Y_11 .def_125) (and (or Y_11 .def_127) (and .x.464 .def_129))) .def_133) .def_135) .def_138) .def_140) .def_143) .def_145) .def_156)) (and (and (and .def_160 .loc.12) .def_164) .def_167)) (and (and .def_145 (and .def_143 (and .def_140 (and .def_138 (and .def_135 (and .def_133 (and .def_129 (and .loc.11 (and .loc.10 (and .loc.9 (and .def_102 (and .def_100 (and .def_97 (and .def_94 .def_170)))))))))))))) .def_185)) (and (and .def_185 (and .def_145 (and .def_143 (and .def_140 (and .def_138 (and .def_135 (and .def_133 (and .def_129 (and .loc.11 (and .loc.10 (and .loc.9 .def_191))))))))))) .def_203)) (and .loc.7 (and .loc.6 .def_206))) (and (and (and .def_43 (and .def_185 (and .def_145 (and .def_143 (and .def_140 (and .def_138 (and .def_135 (and .def_133 (and .def_160 (and .loc.11 (and .loc.10 .def_210))))))))))) .def_222) .def_230)) (and .def_222 (and .def_43 (and .def_185 (and .def_145 (and .def_143 (and .def_140 (and .def_138 (and .def_135 (and .def_133 (and .def_129 (and .def_167 (and .def_164 (and .loc.9 (and .def_102 .def_235))))))))))))))) (and (or Y_11 .def_251) (and .def_222 (and .def_185 (and .def_145 (and .def_143 (and .def_140 (and .def_138 (and .def_135 (and .def_133 (and .def_160 (and .loc.11 (and .loc.10 (and .loc.7 .def_210)))))))))))))) (and (and .def_185 (and .def_156 (and .def_145 (and .def_143 (and .def_140 (and .def_138 (and .def_135 (and .def_133 (and .def_129 (and .def_167 (and .def_164 (and .loc.9 (and .loc.7 (and .loc.6 (and .def_102 (and .def_100 (and .def_97 .def_233))))))))))))))))) .def_285)) (and (or .x.464 .def_125) (and (or .x.464 (not .def_127)) (and .def_185 (and .def_156 (and .def_145 (and .def_143 (and .def_140 (and .def_138 (and .def_135 (and .def_133 (and .def_129 (and .def_167 (and .def_164 (and .def_160 (and .loc.7 (and .loc.6 (and .def_102 .def_206)))))))))))))))))) (and .def_185 (and .def_156 (and .def_145 (and .def_143 (and .def_140 (and .def_138 (and .def_135 (and .def_133 (and .def_129 (and .def_167 (and .def_164 (and .def_160 (and .loc.7 (and .loc.6 (and .def_206 (and Y_11 .x.464))))))))))))))))) (and .def_222 (and .def_185 (and .def_145 (and .def_143 (and .def_140 (and .def_138 (and .def_135 (and .def_133 (and .def_129 (and .def_164 (and .loc.11 (and .loc.9 (and .loc.7 (and .def_102 (and .def_100 (and .def_97 (and .def_94 (and .def_170 .def_206))))))))))))))))))) (and .def_222 (and .def_203 (and .def_185 (and .def_145 (and .def_143 (and .def_140 (and .def_138 (and .def_135 (and .def_133 (and .def_129 (and .def_164 (and .loc.11 (and .loc.9 (and .loc.7 (and .def_102 (and .def_100 .def_235))))))))))))))))) (and .def_230 (and .def_43 (and .def_185 (and .def_145 (and .def_143 (and .def_140 (and .def_138 (and .def_135 (and .def_133 (and .def_129 (and .def_164 (and .def_160 (and .loc.11 (and .loc.6 .def_191))))))))))))))) (and (= T_11 .x.459) (and (and (= L_11 .x.451) .def_388) .def_390))) (and (or Y_11 (and (and (= .x.449 0) (= .x.445 0)) (= Z_0 (store Z_7 0 0)))) (and (or .x.464 (and (and (and (and (and (and (and (and .def_251 (and (and (not (<= .x.440 .x.456)) (not (<= .x.440 .x.460))) (not (= .x.460 0)))) (not (= .x.456 0))) (= .x.462 0)) (= .x.452 0)) (= (select Z_0 .x.456) 0)) (= (select .def_420 .x.460) 0)) (= .x.441 (store .def_420 .x.460 1))) (= .x.447 (store (store H_11 .x.456 400000) .x.460 400000)))) (and .def_43 (and .def_185 (and .def_140 (and .def_164 (and .def_160 (and .loc.11 (and .loc.6 (and .loc.5 (and .def_102 (and .def_91 .def_97)))))))))))))) (and (or Y_11 (and (and (= A1_4 (select (select Z_3 B1_2) .def_148)) .def_456) (= Z_3 .def_459))) (and (or .x.464 (and .def_122 (= .x.443 (store Z_3 .x.460 (store (select Z_3 .x.460) (+ (* 4 .x.454) .x.462) 20))))) .def_488))) (and (or Y_11 (and (= .x.443 .def_459) (and .def_456 (= A1_4 (select (select .x.443 B1_2) .def_148))))) (and .def_285 .def_488))))))))))))))))))))))))))))))))))))))))))))))) (state |.x.440| |.x.441| |.x.442| |.x.443| |.x.444| |.x.445| |.x.446| |.x.447| |.x.448| |.x.449| |.x.450| |.x.451| |.x.452| |.x.453| |.x.454| |.x.455| |.x.456| |.x.457| |.x.458| |.x.459| |.x.460| |.x.461| |.x.462| |.x.463| |.x.464| |.loc.9| |.loc.10| |.loc.11| |.loc.12| |.xtv.1| |.xtv.2| |.xtv.3|))))
(assert (forall ((|A_11| Int) (|Z_7| (Array Int Int)) (|C_11| (Array Int Int)) (|D_11| (Array Int Int)) (|E_11| (Array Int Int)) (|F_11| Int) (|G_11| Int) (|H_11| (Array Int Int)) (|I_11| (Array Int Int)) (|J_11| Int) (|K_11| Int) (|L_11| Int) (|A1_3| Int) (|N_11| Int) (|O_11| Int) (|P_11| Int) (|B1_2| Int) (|R_11| Int) (|S_11| Int) (|T_11| Int) (|C1_0| Int) (|V_11| Int) (|D1_0| Int) (|X_11| Int) (|Y_11| Bool) (|.loc.5| Bool) (|.loc.6| Bool) (|.loc.7| Bool) (|.loc.8| Bool) (|A1_4| Int) (|Z_3| (Array Int Int)) (|Z_0| (Array Int Int)) (|.x.450| Int) (|.x.448| (Array Int Int)) (|.x.446| Int) (|.x.444| (Array Int Int)) (|.x.440| Int) (|.x.442| (Array Int Int)) (|.x.443| (Array Int Int)) (|.x.455| Int) (|.x.457| Int) (|.x.464| Bool) (|.x.441| (Array Int Int)) (|.x.453| Int) (|.x.458| Int) (|.x.461| Int) (|.x.463| Int) (|.x.454| Int) (|.x.462| Int) (|.x.460| Int) (|.x.456| Int) (|.x.452| Int) (|.loc.9| Bool) (|.loc.12| Bool) (|.loc.10| Bool) (|.loc.11| Bool) (|.x.459| Int) (|.x.451| Int) (|.x.449| Int) (|.x.445| Int) (|.x.447| (Array Int Int)) (|.xtv.1| Int) (|.xtv.2| (Array Int Int)) (|.xtv.3| (Array Int Int))) (=> (state |A_11| |Z_7| |C_11| |D_11| |E_11| |F_11| |G_11| |H_11| |I_11| |J_11| |K_11| |L_11| |A1_3| |N_11| |O_11| |P_11| |B1_2| |R_11| |S_11| |T_11| |C1_0| |V_11| |D1_0| |X_11| |Y_11| |.loc.5| |.loc.6| |.loc.7| |.loc.8| |A1_4| |Z_3| |Z_0|) (not (and Y_11 (and .loc.8 (and (not .loc.7) (and (not .loc.5) (not .loc.6)))))))))
(check-sat)
